peakDumbCharging = 14800; 
Machine = anon_enum(16); 
machineSpeed = [3700,3700,3700,3700,3700,3700,3700,3700,3700,3700,3700,3700,3700,3700,3700,3700]; 
machineLoad = [3700,3700,3700,3700,3700,3700,3700,3700,3700,3700,3700,3700,3700,3700,3700,3700]; 
Car = anon_enum(8); 
demandCar = [4200,4560,2720,6960,12360,4440,3040,7760]; 
arrivalCar = [52,51,47,46,45,45,40,38]; 
departureCar = [54,53,49,49,50,47,42,41]; 
